language Essence 1.3
letting n_cars be 200
letting n_classes be 17
letting n_options be 5
letting maxcars be function (1 --> 1, 2 --> 2, 3 --> 1, 4 --> 2, 5 --> 1)
letting blksize be function (1 --> 2, 2 --> 3, 3 --> 3, 4 --> 5, 5 --> 5)
letting quantity be function (1 --> 2, 2 --> 2, 3 --> 4, 4 --> 1, 5 --> 30, 6 --> 1, 7 --> 1, 8 --> 39, 9 --> 54, 10 --> 1, 11 --> 2, 12 --> 3, 13 --> 1, 14 --> 53, 15 --> 1, 16 --> 1, 17 --> 4)
letting usage be relation ((1,1),(1,3),(1,4),(2,1),(2,5),(3,1),(3,2),(4,1),(4,2),(4,3),(5,5),(6,1),(6,2),(6,4),(7,1),(7,3),(7,5),(8,3),(9,4),(10,2),(10,3),(10,5),(11,3),(11,4),(12,1),(12,3),(13,1),(13,4),(13,5),(14,2),(15,2),(15,3),(16,2),(16,5),(17,1))

